db/data/173471588812706139917160223912879023636.z3.out
sat
-------------------
246.721287759
